6,5	0,0	9,8	6,5	0,0	0,0	0,0	0,0	0,0	6,8
19,2	7,2	0,0	9,5	9,8	0,0	0,0	7,2	0,0	0,0
0,0	0,0	15,4	0,0	8,9	16,7	0,0	0,0	6,5	0,0
13,2	0,0	6,4	0,0	0,0	0,0	14,9	0,0	0,0	0,0
0,0	17,9	0,0	6,5	17,8	0,0	0,0	19,1	0,0	0,0
0,0	8,3	15,1	0,0	14,6	5,1	0,0	0,0	8,7	0,0
0,0	16,7	0,0	10,1	0,0	0,0	10,4	0,0	0,0	18,7
9,4	0,0	9,5	0,0	0,0	0,0	0,0	0,0	0,0	14,7
0,0	18,8	0,0	13,9	17,8	0,0	0,0	10,1	0,0	0,0
0,0	0,0	8,2	0,0	0,0	15,1	6,0	0,0	0,0	14,0
									
4,8	4,7	4,0	3,7	3,4	3,3	4,5	4,7	3,0	3,6
